% seed = 0

mint = 33;
% maxt = 184;

nActs = 92;
dur = [0,3,3,1,1,3,2,2,3,3,2,1,3,2,4,4,1,1,2,1,2,1,4,2,1,2,2,3,1,2,2,1,1,3,1,2,5,3,4,1,2,1,2,5,2,2,2,2,3,3,4,2,1,2,2,1,2,2,2,1,1,5,2,1,3,1,1,1,2,2,2,2,3,1,1,1,3,2,2,1,2,2,1,3,2,1,1,1,2,2,2,0];

nSkills = 12;
sreq = [| 0,0,0,0,0,0,0,0,0,0,0,0,
	| 0,0,0,0,0,0,0,0,1,0,0,0,
	| 0,0,1,0,0,0,0,0,0,0,0,0,
	| 0,0,1,0,0,0,0,0,1,0,0,1,
	| 0,0,0,0,0,0,0,0,0,0,1,0,
	| 0,0,0,0,0,0,0,0,1,1,0,0,
	| 0,0,0,0,0,0,0,0,0,0,1,1,
	| 0,1,0,0,0,0,0,0,1,1,0,0,
	| 0,0,0,0,0,1,0,1,0,0,0,0,
	| 0,0,0,0,0,1,0,0,0,0,0,0,
	| 0,0,0,0,0,0,0,0,1,0,0,0,
	| 0,0,0,1,0,0,0,1,0,0,0,1,
	| 0,0,0,0,0,0,0,0,1,0,1,1,
	| 0,1,0,0,0,1,0,0,0,0,0,0,
	| 0,0,0,0,0,0,0,0,0,0,1,0,
	| 0,0,0,0,0,0,0,0,0,0,1,0,
	| 0,0,0,0,0,1,0,1,0,0,0,0,
	| 0,0,0,0,0,0,0,0,0,0,0,1,
	| 0,0,0,0,0,0,0,0,2,0,1,0,
	| 0,0,0,0,0,1,1,0,0,0,1,0,
	| 0,0,0,0,0,0,0,0,1,0,0,1,
	| 0,0,1,0,0,0,0,2,0,0,0,0,
	| 0,0,0,1,0,1,0,0,1,0,0,0,
	| 0,0,0,0,0,0,0,0,1,0,0,0,
	| 0,0,0,0,0,0,0,0,1,0,1,1,
	| 0,0,1,1,0,0,0,0,0,0,0,1,
	| 0,0,0,0,0,0,0,0,1,0,0,1,
	| 0,0,1,0,0,0,0,0,0,0,0,0,
	| 0,0,0,0,0,1,0,0,2,0,0,0,
	| 0,0,0,0,0,0,0,0,1,0,0,0,
	| 0,0,0,0,0,0,0,0,1,0,0,0,
	| 0,0,0,0,1,0,0,0,1,0,0,1,
	| 0,0,0,0,1,0,0,1,0,0,0,0,
	| 0,0,0,0,0,0,0,0,1,0,0,0,
	| 0,0,0,0,0,0,0,0,1,0,0,0,
	| 0,0,0,0,0,2,0,0,0,0,0,1,
	| 0,0,0,0,0,0,0,0,1,0,0,0,
	| 0,0,0,0,0,0,0,0,0,1,0,0,
	| 0,0,0,0,0,0,1,1,0,0,0,0,
	| 0,0,0,0,0,0,0,0,1,0,0,0,
	| 0,0,0,0,0,0,1,0,1,0,0,0,
	| 0,0,0,0,0,0,0,0,0,2,1,0,
	| 0,0,0,0,0,0,0,1,0,0,1,0,
	| 0,0,0,0,0,0,0,0,0,1,0,0,
	| 0,0,0,0,0,0,0,0,1,0,0,0,
	| 0,0,0,0,0,0,0,0,1,0,0,0,
	| 0,0,0,0,1,0,0,0,1,0,0,0,
	| 0,0,0,0,0,0,0,0,1,0,1,0,
	| 0,0,0,0,0,0,0,0,1,0,0,0,
	| 0,0,0,0,0,0,0,1,0,0,1,0,
	| 0,0,1,0,0,0,0,0,0,0,1,0,
	| 0,0,1,0,0,0,0,0,1,0,0,1,
	| 0,0,1,0,1,0,0,0,0,0,1,0,
	| 0,0,0,0,0,0,0,1,1,1,0,0,
	| 0,0,0,0,0,1,0,0,0,0,0,1,
	| 0,1,0,0,0,0,0,0,0,0,0,0,
	| 0,0,0,0,0,0,1,0,0,0,0,0,
	| 0,0,0,0,0,0,0,0,0,0,0,1,
	| 0,0,0,1,0,0,0,1,1,0,0,0,
	| 0,1,0,0,0,0,0,0,1,1,0,0,
	| 0,0,1,0,0,0,0,0,1,0,0,0,
	| 0,0,0,0,0,0,0,0,1,1,0,0,
	| 0,0,0,0,0,0,0,1,0,0,0,0,
	| 0,0,0,0,0,0,0,0,1,1,0,0,
	| 0,0,0,0,0,0,0,0,0,1,0,0,
	| 0,0,0,1,0,0,0,0,1,0,0,0,
	| 0,0,0,0,0,1,0,0,1,0,0,0,
	| 0,0,0,0,0,1,0,0,0,0,2,0,
	| 0,0,0,0,0,0,0,0,1,0,0,1,
	| 0,0,0,0,0,0,0,0,0,0,1,1,
	| 1,0,0,1,0,0,0,0,1,0,0,0,
	| 0,0,0,0,0,0,0,0,1,0,0,0,
	| 0,1,0,0,0,1,0,0,0,1,0,0,
	| 0,0,0,0,1,0,0,0,0,0,1,0,
	| 0,0,0,0,0,1,0,0,0,0,1,0,
	| 1,0,0,0,0,0,0,0,0,0,0,0,
	| 0,0,0,0,0,1,0,0,0,0,0,0,
	| 0,0,0,0,0,2,0,0,0,1,0,0,
	| 0,0,0,0,0,0,0,1,0,0,0,0,
	| 0,0,0,0,0,0,0,0,0,1,0,0,
	| 0,0,0,0,0,1,0,0,0,1,0,1,
	| 0,0,0,0,0,0,0,0,1,1,0,0,
	| 0,0,0,0,1,0,0,0,1,0,0,0,
	| 0,0,0,0,0,0,0,0,1,0,0,0,
	| 0,1,0,0,0,0,0,0,0,0,0,1,
	| 0,0,0,0,0,0,0,0,0,1,0,0,
	| 0,0,0,0,0,0,0,0,1,0,0,0,
	| 0,0,0,0,0,1,0,1,1,0,0,0,
	| 0,0,0,0,0,0,0,1,1,0,0,0,
	| 0,0,1,0,0,0,0,0,2,0,0,0,
	| 0,0,0,1,0,0,0,0,0,0,0,0,
	| 0,0,0,0,0,0,0,0,0,0,0,0, |];

% SumOfsreq = 171;

nResources = 9;
mastery = [| true,true,true,true,true,true,false,false,false,false,false,false,
	| false,false,false,false,false,false,false,false,false,false,false,true,
	| false,false,false,false,false,false,false,true,true,false,false,false,
	| false,false,false,true,true,true,false,false,false,false,true,true,
	| false,false,false,false,false,false,true,true,true,false,false,true,
	| false,false,false,false,false,false,false,false,true,false,false,false,
	| false,false,true,false,false,false,false,false,false,true,true,true,
	| false,false,false,false,false,true,false,false,false,true,true,true,
	| false,false,false,false,false,false,true,true,true,false,false,false, |];

nPrecs = 166;
pred = [1,1,1,2,2,2,3,3,3,4,4,4,5,5,5,6,6,7,7,7,8,8,8,9,9,9,10,10,11,11,11,12,12,12,13,13,14,15,15,15,16,17,17,17,18,18,19,19,19,20,20,21,21,21,22,22,23,24,24,25,25,25,26,26,26,27,28,28,29,29,29,30,31,31,32,33,33,33,34,34,34,35,36,36,36,37,37,37,38,38,38,39,40,41,41,41,42,42,42,43,44,45,45,46,46,47,47,48,49,49,49,50,51,52,53,54,55,55,56,57,58,59,60,60,61,61,61,62,63,63,64,65,65,66,67,67,68,69,70,71,71,72,72,73,73,74,74,75,75,76,77,78,79,80,81,81,82,83,84,85,86,87,88,89,90,91];
succ = [2,3,4,13,5,26,65,27,40,9,37,21,29,6,7,42,39,67,12,8,20,14,15,10,11,23,18,87,17,19,16,52,44,63,35,48,70,25,60,28,81,18,45,30,43,63,48,54,24,49,65,41,26,22,57,42,49,56,32,81,34,62,33,36,38,66,58,46,33,38,31,63,59,72,53,73,74,71,58,47,72,45,51,45,62,80,44,48,89,46,39,70,41,49,54,64,67,69,75,73,68,68,60,50,62,51,86,58,50,51,69,78,55,82,84,73,83,61,75,82,77,76,90,79,68,71,80,69,86,79,77,75,85,86,70,71,76,78,90,77,87,83,85,76,78,85,88,81,79,84,90,80,91,84,82,83,88,89,88,87,89,91,91,92,92,92];

nUnrels = 2856;
unpred = [2,2,2,2,2,2,2,2,2,2,2,2,2,2,2,2,2,2,2,2,2,2,2,2,2,2,3,3,3,3,3,3,3,3,3,3,3,3,3,3,3,3,3,3,3,3,3,3,3,3,3,3,3,3,3,3,3,3,3,3,3,3,3,3,3,3,3,3,3,3,3,3,3,3,3,3,3,3,3,3,3,4,4,4,4,4,4,4,4,4,4,4,4,4,4,4,4,4,4,4,4,4,4,4,5,5,5,5,5,5,5,5,5,5,5,5,5,5,5,5,5,5,5,5,5,5,5,5,5,5,5,5,5,5,6,6,6,6,6,6,6,6,6,6,6,6,6,6,6,6,6,6,6,6,6,6,6,6,6,6,6,6,6,6,6,6,6,6,6,6,6,6,6,6,6,6,6,6,6,6,6,6,6,6,6,6,6,6,6,6,6,6,6,6,6,6,6,6,6,7,7,7,7,7,7,7,7,7,7,7,7,7,7,7,7,7,7,7,7,7,7,7,7,7,7,7,7,7,7,7,7,7,7,7,7,7,7,7,8,8,8,8,8,8,8,8,8,8,8,8,8,8,8,8,8,8,8,8,8,8,8,8,8,8,8,8,8,8,8,8,8,8,8,8,8,8,8,8,8,8,8,8,9,9,9,9,9,9,9,9,9,9,9,9,9,9,9,9,9,9,9,9,9,9,9,9,9,9,9,9,9,9,9,9,9,9,9,9,9,9,10,10,10,10,10,10,10,10,10,10,10,10,10,10,10,10,10,10,10,10,10,10,10,10,10,10,10,10,10,10,10,10,10,10,10,10,10,10,10,10,10,10,10,10,10,10,10,10,10,10,10,10,10,10,10,10,10,10,10,10,10,10,10,10,10,10,10,11,11,11,11,11,11,11,11,11,11,11,11,11,11,11,11,11,11,11,11,11,11,11,11,11,11,11,11,11,11,11,11,11,11,11,11,11,11,11,11,11,11,11,11,11,11,11,12,12,12,12,12,12,12,12,12,12,12,12,12,12,12,12,12,12,12,12,12,12,12,12,12,12,12,12,12,12,12,12,12,12,12,12,12,12,12,12,12,12,12,12,12,12,12,12,12,12,12,12,12,12,12,12,12,12,12,12,12,12,12,12,12,12,12,13,13,13,13,13,13,13,13,13,13,13,13,13,13,13,13,13,13,13,13,13,13,13,13,13,13,13,13,13,13,13,13,13,13,13,13,13,13,13,13,13,13,13,13,13,13,13,13,13,13,13,13,13,13,13,13,13,13,13,13,13,13,13,13,13,14,14,14,14,14,14,14,14,14,14,14,14,14,14,14,14,14,14,14,14,14,14,14,14,14,14,14,14,14,14,14,14,14,14,14,14,14,14,14,14,14,14,14,14,14,14,14,14,14,14,14,14,14,14,14,14,14,14,14,14,14,14,14,14,14,14,14,14,14,14,14,14,14,14,14,15,15,15,15,15,15,15,15,15,15,15,15,15,15,15,15,15,15,15,15,15,15,15,15,15,15,15,15,15,15,15,15,15,15,15,15,15,15,15,15,15,15,15,15,16,16,16,16,16,16,16,16,16,16,16,16,16,16,16,16,16,16,16,16,16,16,16,16,16,16,16,16,16,16,16,16,16,16,16,16,16,16,16,16,16,16,16,16,16,16,16,16,16,16,16,16,16,16,16,16,16,16,16,16,16,16,16,16,16,16,16,16,16,17,17,17,17,17,17,17,17,17,17,17,17,17,17,17,17,17,17,17,17,17,17,17,17,17,17,17,17,17,17,17,17,17,17,17,17,17,17,17,17,17,17,17,17,17,17,17,17,17,17,17,17,17,17,17,17,18,18,18,18,18,18,18,18,18,18,18,18,18,18,18,18,18,18,18,18,18,18,18,18,18,18,18,18,18,18,18,18,18,18,18,18,18,18,18,18,18,18,18,18,18,18,18,18,18,18,18,18,18,18,18,18,18,18,18,18,18,19,19,19,19,19,19,19,19,19,19,19,19,19,19,19,19,19,19,19,19,19,19,19,19,19,19,19,19,19,19,19,19,19,19,19,19,19,19,19,19,19,19,19,19,19,19,19,19,19,19,20,20,20,20,20,20,20,20,20,20,20,20,20,20,20,20,20,20,20,20,20,20,20,20,20,20,20,20,20,20,20,20,20,20,20,20,20,20,20,20,20,20,20,20,20,20,21,21,21,21,21,21,21,21,21,21,21,21,21,21,21,21,21,21,21,21,21,21,21,21,21,21,21,22,22,22,22,22,22,22,22,22,22,22,22,22,22,22,22,22,22,22,22,22,22,22,22,22,22,22,22,22,22,22,22,22,22,22,22,22,22,22,22,22,22,22,22,22,22,22,22,22,23,23,23,23,23,23,23,23,23,23,23,23,23,23,23,23,23,23,23,23,23,23,23,23,23,23,23,23,23,23,23,23,23,23,23,23,23,23,23,23,23,23,23,23,23,23,23,23,23,24,24,24,24,24,24,24,24,24,24,24,24,24,24,24,24,24,24,24,24,24,24,24,24,24,24,24,24,24,24,24,24,24,24,24,24,24,24,24,24,24,24,24,24,24,24,24,24,24,24,24,24,24,24,24,25,25,25,25,25,25,25,25,25,25,25,25,25,25,25,25,25,25,25,25,25,25,25,25,25,25,25,25,25,25,25,25,25,25,25,25,25,25,25,25,26,26,26,26,26,26,26,26,26,26,26,26,26,26,26,26,26,26,26,26,26,26,26,26,26,26,26,26,26,26,26,26,26,26,27,27,27,27,27,27,27,27,27,27,27,27,27,27,27,27,27,27,27,27,27,27,27,27,27,27,27,27,27,27,27,27,27,27,27,27,27,27,27,27,27,27,27,27,27,27,27,27,27,27,27,27,27,27,27,27,27,27,27,27,27,28,28,28,28,28,28,28,28,28,28,28,28,28,28,28,28,28,28,28,28,28,28,28,28,28,28,28,28,28,28,28,28,28,28,28,28,28,28,28,28,28,28,28,28,28,28,28,28,28,28,28,29,29,29,29,29,29,29,29,29,29,29,29,29,29,29,29,29,29,29,29,29,29,29,29,29,29,29,29,29,29,29,29,29,29,29,29,30,30,30,30,30,30,30,30,30,30,30,30,30,30,30,30,30,30,30,30,30,30,30,30,30,30,30,30,30,30,30,30,30,30,30,30,30,30,30,30,30,30,30,30,30,30,30,30,30,30,30,30,30,30,30,30,31,31,31,31,31,31,31,31,31,31,31,31,31,31,31,31,31,31,31,31,31,31,31,31,31,31,31,31,31,31,31,31,31,31,31,31,31,31,31,31,31,31,31,31,31,31,31,31,31,31,32,32,32,32,32,32,32,32,32,32,32,32,32,32,32,32,32,32,32,32,32,32,32,32,32,32,32,32,32,32,32,32,32,32,32,32,32,32,32,32,32,32,32,32,32,32,32,32,32,32,32,32,32,32,32,33,33,33,33,33,33,33,33,33,33,33,33,33,33,33,33,33,33,33,33,33,33,33,33,33,33,33,33,33,33,33,33,33,33,33,33,33,33,33,33,33,33,33,33,33,34,34,34,34,34,34,34,34,34,34,34,34,34,34,34,34,34,34,34,34,34,34,34,34,34,34,34,34,34,34,34,34,34,34,34,34,34,35,35,35,35,35,35,35,35,35,35,35,35,35,35,35,35,35,35,35,35,35,35,35,35,35,35,35,35,35,35,35,35,35,35,35,35,35,35,35,35,35,35,35,35,35,35,35,36,36,36,36,36,36,36,36,36,36,36,36,36,36,36,36,36,36,36,36,36,36,36,36,36,36,36,36,36,36,36,36,36,36,37,37,37,37,37,37,37,37,37,37,37,37,37,37,37,37,37,37,37,37,37,37,37,37,37,37,37,37,37,37,37,37,37,37,37,37,37,37,37,37,37,37,37,38,38,38,38,38,38,38,38,38,38,38,38,38,38,38,38,38,38,38,38,38,38,38,38,38,38,38,38,38,38,38,38,38,38,38,38,38,38,38,38,39,39,39,39,39,39,39,39,39,39,39,39,39,39,39,39,39,39,39,39,39,39,39,39,39,39,39,39,39,39,39,39,39,39,39,39,39,39,39,39,39,39,39,39,39,39,39,39,39,39,40,40,40,40,40,40,40,40,40,40,40,40,40,40,40,40,40,40,40,40,40,40,40,40,40,40,40,40,41,41,41,41,41,41,41,41,41,41,41,41,41,41,41,41,41,41,41,41,41,41,41,41,41,41,41,41,42,42,42,42,42,42,42,42,42,42,42,42,42,42,42,42,42,42,42,42,42,42,42,42,42,42,42,42,42,42,42,43,43,43,43,43,43,43,43,43,43,43,43,43,43,43,43,43,43,43,43,43,43,43,43,43,43,43,43,43,43,43,43,43,43,43,43,43,43,43,43,43,44,44,44,44,44,44,44,44,44,44,44,44,44,44,44,44,44,44,44,44,44,44,44,44,44,44,44,44,44,44,44,44,44,44,44,44,44,44,44,44,44,44,45,45,45,45,45,45,45,45,45,45,45,45,45,45,45,45,45,45,45,45,45,45,45,45,45,45,45,45,45,45,45,45,45,45,45,45,45,45,46,46,46,46,46,46,46,46,46,46,46,46,46,46,46,46,46,46,46,46,46,46,46,46,46,46,46,46,46,46,46,46,46,46,46,46,46,47,47,47,47,47,47,47,47,47,47,47,47,47,47,47,47,47,47,47,47,47,47,47,47,47,47,47,47,48,48,48,48,48,48,48,48,48,48,48,48,48,48,48,48,48,48,48,48,48,48,48,48,48,48,48,48,48,48,48,48,48,48,48,48,48,48,48,48,49,49,49,49,49,49,49,49,49,49,49,49,49,49,49,49,49,49,49,49,49,49,49,49,50,50,50,50,50,50,50,50,50,50,50,50,50,50,50,50,50,50,50,50,50,50,50,50,50,50,50,50,50,50,50,50,50,50,50,50,51,51,51,51,51,51,51,51,51,51,51,51,51,51,51,51,51,51,51,51,51,51,51,51,51,51,52,52,52,52,52,52,52,52,52,52,52,52,52,52,52,52,52,52,52,52,52,52,52,52,52,52,52,52,52,52,52,52,52,52,52,52,53,53,53,53,53,53,53,53,53,53,53,53,53,53,53,53,53,53,53,53,53,53,53,53,53,53,53,53,53,53,53,53,53,53,53,54,54,54,54,54,54,54,54,54,54,54,54,54,54,54,54,54,54,54,54,54,54,54,54,54,54,54,54,54,54,55,55,55,55,55,55,55,55,55,55,55,55,55,55,55,55,55,55,55,55,55,55,55,56,56,56,56,56,56,56,56,56,56,56,56,56,56,56,56,56,56,56,56,56,56,56,56,56,56,56,57,57,57,57,57,57,57,57,57,57,57,57,57,57,57,57,57,57,57,57,57,57,57,57,57,57,57,57,57,57,57,58,58,58,58,58,58,58,58,58,58,58,58,58,58,58,58,58,58,58,58,58,58,58,58,58,58,58,58,58,58,58,59,59,59,59,59,59,59,59,59,59,59,59,59,59,59,59,59,59,59,59,59,59,59,59,59,59,59,59,60,60,60,60,60,60,60,60,60,60,60,60,60,60,60,60,60,60,60,60,60,60,60,60,60,60,60,60,61,61,61,61,61,61,61,61,61,61,61,61,61,61,61,61,61,61,61,61,62,62,62,62,62,62,62,62,62,62,62,62,62,62,62,62,62,62,62,62,62,62,62,63,63,63,63,63,63,63,63,63,63,63,63,63,63,63,63,63,63,63,63,63,63,63,63,64,64,64,64,64,64,64,64,64,64,64,64,64,64,64,64,64,64,64,64,64,64,64,64,64,65,65,65,65,65,65,65,65,65,65,65,65,65,65,65,65,66,66,66,66,66,66,66,66,66,66,66,66,66,66,66,66,66,66,66,66,66,66,66,67,67,67,67,67,67,67,67,67,67,67,67,67,67,67,67,67,67,68,68,68,68,68,68,68,68,68,68,68,68,68,68,68,68,68,68,68,69,69,69,69,69,69,69,69,69,69,69,69,69,69,69,69,69,70,70,70,70,70,70,70,70,70,70,70,70,70,70,70,70,70,70,70,70,71,71,71,71,71,71,71,71,71,71,71,71,71,71,71,71,72,72,72,72,72,72,72,72,72,72,72,72,72,72,73,73,73,73,73,73,73,73,73,73,73,73,74,74,74,74,74,74,74,74,74,74,74,74,74,75,75,75,75,75,75,75,75,75,76,76,76,76,76,76,76,76,76,76,76,76,77,77,77,77,77,77,77,77,77,77,77,77,77,78,78,78,78,78,78,78,78,78,79,79,79,79,79,79,79,79,79,79,79,80,80,80,80,80,80,80,80,81,81,81,81,81,82,82,82,82,82,82,82,83,83,83,83,83,83,83,84,84,84,84,84,85,85,85,85,86,86,86,86,87,87,87,88,88,89,89,90];
unsucc = [3,4,9,10,11,16,17,18,19,21,22,23,24,27,30,32,37,40,41,43,53,54,56,57,64,66,4,5,6,7,8,9,10,11,12,13,14,15,16,17,18,19,20,21,22,23,24,25,26,28,29,30,31,32,33,34,35,36,37,38,39,42,43,44,45,46,47,48,52,53,56,57,58,59,60,62,63,67,70,72,74,5,6,7,8,12,13,14,15,20,25,27,28,29,31,34,35,40,47,52,59,65,66,72,9,10,11,13,16,17,18,19,21,22,23,24,26,27,30,32,35,36,37,40,41,43,45,48,53,54,56,57,64,66,7,8,9,10,11,12,13,14,15,16,17,18,19,20,21,22,23,24,25,26,27,28,29,30,31,32,33,34,35,36,37,38,40,41,43,44,45,46,47,48,49,50,51,52,53,54,55,56,57,58,59,60,61,62,63,64,65,66,68,72,73,74,76,85,86,9,10,11,13,16,17,18,19,21,22,23,24,26,27,29,30,31,32,33,35,36,37,38,39,40,41,42,43,45,48,53,54,56,57,59,64,66,73,74,9,10,11,12,13,16,17,18,19,21,22,23,24,26,27,29,30,31,32,33,35,36,37,38,39,40,41,42,43,44,45,48,52,53,54,56,57,59,63,64,66,67,73,74,12,13,14,15,20,21,22,25,26,27,28,29,31,33,34,35,36,37,38,39,40,41,42,44,46,47,52,57,59,62,64,65,66,67,70,72,74,85,11,12,13,14,15,16,17,19,20,21,22,23,24,25,26,27,28,29,30,31,32,33,34,35,36,37,38,39,40,41,42,44,45,46,47,48,49,50,51,52,53,54,55,56,57,58,59,60,61,62,64,65,66,67,68,69,70,71,72,74,75,77,81,82,83,85,90,12,13,14,15,20,21,22,23,25,26,27,28,29,31,33,34,35,36,37,38,39,40,41,42,44,46,47,49,50,51,52,55,57,59,61,62,64,65,66,67,69,70,71,72,74,85,87,13,14,15,16,17,18,19,20,21,22,23,24,25,26,27,28,29,30,31,32,33,34,35,36,37,38,39,40,41,42,43,45,46,47,48,49,50,51,53,54,55,56,57,58,59,60,61,62,64,65,66,67,69,70,71,72,73,74,75,77,78,80,81,83,85,87,90,14,15,16,17,18,19,20,21,22,23,24,25,26,27,28,29,30,31,32,33,34,36,37,38,39,40,41,42,43,44,46,47,49,50,51,52,53,54,55,56,57,59,61,62,63,64,65,66,67,69,70,71,72,73,74,75,78,80,81,82,83,85,86,87,89,15,16,17,18,19,20,21,22,23,24,25,26,27,28,29,30,31,32,33,34,35,36,37,38,39,40,41,42,43,44,45,46,47,48,49,50,51,52,53,54,55,56,57,58,59,60,61,62,63,64,65,66,67,68,69,71,72,73,74,75,76,77,78,79,80,81,82,83,84,85,86,87,88,89,91,16,17,18,19,20,21,22,23,24,26,27,29,30,31,32,33,35,36,37,38,39,40,41,42,43,44,45,48,49,52,53,54,56,57,59,63,64,65,66,67,70,73,74,75,17,18,19,20,21,22,23,24,25,26,27,28,29,30,31,32,33,34,35,36,37,38,39,40,41,42,43,44,45,46,47,48,49,50,51,52,53,54,55,56,57,58,59,60,61,62,63,64,65,66,67,68,69,70,71,72,73,74,75,76,77,78,79,80,84,85,86,87,90,19,20,21,22,23,24,25,26,27,28,29,31,32,33,34,35,36,37,38,39,40,41,42,44,46,47,48,49,50,51,52,53,54,55,56,57,58,59,61,62,64,65,66,67,69,70,71,72,74,75,77,81,82,83,85,87,19,20,21,22,23,24,25,26,27,28,29,30,31,32,33,34,35,36,37,38,39,40,41,42,44,45,46,47,48,49,50,51,52,53,54,55,56,57,58,59,60,61,62,64,65,66,67,68,69,70,71,72,74,75,77,81,82,83,85,87,90,20,21,22,23,25,26,27,28,29,30,31,33,34,35,36,37,38,39,40,41,42,43,44,45,46,47,49,50,51,52,55,57,59,60,61,62,63,64,65,66,67,68,69,70,71,72,74,85,86,87,21,22,23,24,25,26,27,28,29,30,31,32,33,34,35,36,37,38,39,40,41,42,43,44,45,46,47,48,52,53,54,56,57,58,59,60,62,63,64,66,67,70,72,73,74,86,23,24,25,27,28,29,30,31,32,34,35,37,40,43,44,47,48,52,53,56,58,59,63,65,66,72,86,23,24,25,26,27,28,29,30,31,32,33,34,35,36,37,38,39,40,41,43,44,45,46,47,48,49,50,51,52,53,54,55,56,58,59,60,61,62,63,64,65,66,68,72,73,74,76,85,86,24,25,26,27,28,29,30,31,32,33,34,35,36,37,38,39,40,41,42,43,44,45,46,47,48,52,53,54,56,57,58,59,60,62,63,64,65,66,67,70,72,73,74,75,79,81,82,85,86,25,26,27,28,29,30,31,33,34,35,36,37,38,39,40,41,42,43,44,45,46,47,48,49,50,51,52,54,55,57,58,59,60,61,62,63,64,65,66,67,68,69,70,71,72,73,74,76,77,78,80,85,86,87,90,26,27,28,29,30,31,32,33,35,36,37,38,39,40,41,42,43,44,45,46,48,49,50,52,53,54,56,57,59,60,63,64,65,66,67,70,73,74,75,79,27,28,29,30,31,32,34,35,37,40,41,42,43,44,47,48,49,52,53,54,56,57,58,59,63,64,65,66,67,72,75,81,82,86,28,29,30,31,32,33,34,35,36,37,38,39,40,41,42,43,44,45,46,47,48,49,50,51,52,53,54,55,56,57,58,59,60,61,62,63,64,65,67,68,69,70,71,72,73,74,75,76,77,78,79,80,81,82,83,84,85,87,88,90,91,29,30,31,32,33,34,35,36,37,38,39,40,41,42,43,44,45,47,48,49,51,52,53,54,55,56,57,59,60,61,63,64,65,66,67,68,70,71,72,73,74,75,76,79,81,82,83,85,86,87,89,30,32,34,35,36,37,40,41,42,43,44,45,47,48,49,51,52,53,54,55,56,57,58,60,61,63,64,65,66,67,68,75,79,81,82,86,31,32,33,34,35,36,37,38,39,40,41,42,43,44,45,46,47,48,49,50,51,52,53,54,55,56,57,58,59,60,61,62,64,65,66,67,68,69,70,71,72,73,74,75,76,77,78,80,81,82,83,84,85,87,88,90,32,33,34,35,36,37,38,39,40,41,42,43,44,45,46,47,48,49,50,51,52,53,54,55,56,57,58,60,61,62,63,64,65,66,67,68,69,70,71,73,74,75,77,78,79,80,81,82,86,90,33,34,35,36,37,38,39,40,41,42,43,44,45,46,47,48,49,50,51,52,54,55,56,57,58,59,60,61,62,63,64,65,66,67,68,69,70,71,72,73,74,75,76,77,78,79,80,81,82,83,85,86,87,89,90,34,35,36,37,38,39,40,41,42,43,44,45,46,47,48,49,50,51,52,53,54,55,56,57,58,59,60,61,62,63,64,65,66,67,68,69,70,72,75,79,81,82,83,86,89,35,36,37,38,39,40,41,42,43,44,45,46,48,49,50,52,53,54,56,57,59,60,62,63,64,65,66,67,69,70,73,74,75,78,79,81,82,36,37,38,39,40,41,42,43,44,46,47,48,49,50,51,52,53,54,55,56,57,58,59,61,62,63,64,65,66,67,69,70,71,72,73,74,75,77,78,80,81,82,83,85,86,87,89,37,38,39,40,41,42,43,44,46,47,48,49,50,52,53,54,56,57,58,59,63,64,65,66,67,70,72,73,74,75,81,82,85,86,38,39,40,41,42,43,45,46,47,49,50,51,52,53,54,55,56,57,59,60,61,62,63,64,65,66,67,69,70,71,72,73,74,75,78,79,81,82,83,85,86,87,89,40,41,42,43,44,45,47,48,49,51,52,53,54,55,56,57,58,59,60,61,63,64,65,66,67,68,71,72,73,74,75,76,77,79,81,82,83,85,86,87,40,41,42,43,44,45,46,47,48,49,50,51,52,53,54,55,56,57,58,59,60,61,62,63,64,65,66,67,68,69,71,72,73,74,75,76,77,78,79,80,81,82,83,84,85,86,87,88,89,91,42,43,44,45,46,47,48,52,53,56,57,58,59,60,62,63,65,66,67,70,72,74,75,79,81,82,85,86,42,43,44,45,46,47,48,52,53,56,57,58,59,60,62,63,65,66,67,70,72,74,75,79,81,82,85,86,43,44,45,46,47,48,49,50,51,52,53,54,55,56,57,58,59,60,61,62,63,64,65,66,68,72,73,74,76,85,86,44,45,46,47,48,49,50,51,52,53,54,55,56,57,58,59,60,61,62,63,64,65,66,67,68,69,70,71,72,74,75,77,79,81,82,83,85,86,87,89,90,45,46,47,48,49,50,51,52,53,54,55,56,57,58,59,60,61,62,63,64,65,66,67,69,70,71,72,73,74,75,77,78,79,80,81,82,83,85,86,87,89,90,46,47,48,49,50,51,52,53,54,55,56,57,58,59,61,62,63,64,65,66,67,69,70,71,72,73,74,75,77,78,80,81,82,83,85,86,87,89,47,48,49,51,52,53,54,55,56,57,58,59,60,61,63,64,65,66,67,68,70,71,72,73,74,75,76,77,79,81,82,83,85,86,87,89,90,48,49,50,52,53,54,56,57,58,59,60,62,63,64,65,66,67,69,70,72,73,74,75,78,79,81,82,85,49,50,51,52,53,54,55,56,57,59,60,61,62,63,64,65,66,67,68,69,70,71,72,73,74,75,76,78,79,80,81,82,83,84,85,86,87,88,89,91,52,53,54,56,57,58,59,60,62,63,64,65,66,67,70,72,73,74,75,79,81,82,85,86,51,52,53,54,55,56,57,58,59,60,61,62,63,64,65,66,67,68,69,70,71,72,73,74,75,76,77,79,81,82,83,85,86,87,89,90,52,53,54,56,57,58,59,60,62,63,64,65,66,67,69,70,72,73,74,75,78,79,81,82,85,86,53,54,55,56,57,58,59,60,61,62,63,64,65,66,67,68,69,70,71,72,73,74,75,76,77,78,79,80,81,83,84,85,86,87,89,90,54,55,56,57,58,59,60,61,62,63,64,65,66,67,68,69,70,71,72,73,74,75,76,77,78,79,80,81,82,83,85,86,87,89,90,55,56,57,58,59,60,61,62,63,64,65,66,67,68,69,70,71,72,74,75,77,79,81,82,83,85,86,87,89,90,56,57,58,59,60,62,63,64,65,66,67,69,70,72,73,74,75,78,79,81,82,85,86,57,58,59,60,61,62,63,64,65,66,67,68,69,70,71,72,73,74,76,77,78,80,84,85,86,87,90,58,59,60,61,62,63,64,65,66,67,68,69,70,71,72,73,74,75,76,77,78,79,80,81,83,84,85,86,87,89,90,59,60,61,62,63,64,65,66,67,68,69,70,71,72,73,74,75,76,78,79,80,81,82,83,84,85,86,87,88,89,91,60,61,62,63,64,65,66,67,68,69,70,71,72,73,74,75,77,78,79,80,81,82,83,85,86,87,89,90,61,62,63,64,65,66,67,68,69,70,71,72,73,74,75,76,77,78,80,81,82,83,84,85,86,87,88,89,62,63,64,65,66,67,69,70,72,73,74,75,78,79,81,82,83,85,86,89,63,64,65,66,67,68,70,71,72,73,74,75,76,77,79,81,82,83,85,86,87,89,90,64,65,66,67,68,69,70,71,72,73,74,75,76,77,78,80,81,82,83,84,85,87,88,90,65,66,67,68,69,70,71,72,73,74,75,76,78,79,80,81,82,83,84,85,86,87,88,89,91,66,67,68,69,70,71,72,73,74,76,77,78,80,84,86,90,67,68,69,70,71,72,73,74,75,76,77,78,79,80,81,82,83,84,85,87,88,90,91,68,69,72,73,74,75,76,78,79,80,81,82,83,84,85,86,88,89,69,70,71,72,73,74,75,77,78,79,80,81,82,83,85,86,87,89,90,70,71,72,73,74,75,76,77,79,81,82,83,85,86,87,89,90,71,72,73,74,75,76,77,78,79,80,81,82,83,84,85,86,87,88,89,91,72,73,74,75,76,78,79,80,81,82,83,84,85,86,88,89,73,74,75,76,77,78,79,80,81,82,84,86,88,90,74,75,77,79,81,82,83,85,86,87,89,90,75,76,77,78,79,80,81,82,83,84,86,89,90,76,77,78,80,84,85,86,87,90,77,78,79,80,81,82,83,85,86,87,89,90,78,79,80,81,82,83,84,85,86,87,88,89,91,79,81,82,83,85,86,87,89,90,80,81,82,83,84,85,86,87,88,89,90,81,82,83,85,86,87,89,90,84,85,86,87,90,83,84,85,86,87,89,90,84,85,86,87,88,90,91,85,86,87,89,90,86,88,89,90,87,88,90,91,88,89,90,89,90,90,91,91];

USEFUL_RES = [{},
	{3,5,6,9},
	{1,7},
	{1,2,3,4,5,6,7,8,9},
	{4,7,8},
	{3,5,6,7,8,9},
	{2,4,5,7,8},
	{1,3,5,6,7,8,9},
	{1,3,4,5,8,9},
	{1,4,8},
	{3,5,6,9},
	{1,2,3,4,5,7,8,9},
	{2,3,4,5,6,7,8,9},
	{1,4,8},
	{4,7,8},
	{4,7,8},
	{1,3,4,5,8,9},
	{2,4,5,7,8},
	{3,4,5,6,7,8,9},
	{1,4,5,7,8,9},
	{2,3,4,5,6,7,8,9},
	{1,3,5,7,9},
	{1,3,4,5,6,8,9},
	{3,5,6,9},
	{2,3,4,5,6,7,8,9},
	{1,2,4,5,7,8},
	{2,3,4,5,6,7,8,9},
	{1,7},
	{1,3,4,5,6,8,9},
	{3,5,6,9},
	{3,5,6,9},
	{1,2,3,4,5,6,7,8,9},
	{1,3,4,5,9},
	{3,5,6,9},
	{3,5,6,9},
	{1,2,4,5,7,8},
	{3,5,6,9},
	{7,8},
	{3,5,9},
	{3,5,6,9},
	{3,5,6,9},
	{4,7,8},
	{3,4,5,7,8,9},
	{7,8},
	{3,5,6,9},
	{3,5,6,9},
	{1,3,4,5,6,9},
	{3,4,5,6,7,8,9},
	{3,5,6,9},
	{3,4,5,7,8,9},
	{1,4,7,8},
	{1,2,3,4,5,6,7,8,9},
	{1,4,7,8},
	{3,5,6,7,8,9},
	{1,2,4,5,7,8},
	{1},
	{5,9},
	{2,4,5,7,8},
	{1,3,4,5,6,9},
	{1,3,5,6,7,8,9},
	{1,3,5,6,7,9},
	{3,5,6,7,8,9},
	{3,5,9},
	{3,5,6,7,8,9},
	{7,8},
	{1,3,4,5,6,9},
	{1,3,4,5,6,8,9},
	{1,4,7,8},
	{2,3,4,5,6,7,8,9},
	{2,4,5,7,8},
	{1,3,4,5,6,9},
	{3,5,6,9},
	{1,4,7,8},
	{1,4,7,8},
	{1,4,7,8},
	{1},
	{1,4,8},
	{1,4,7,8},
	{3,5,9},
	{7,8},
	{1,2,4,5,7,8},
	{3,5,6,7,8,9},
	{1,3,4,5,6,9},
	{3,5,6,9},
	{1,2,4,5,7,8},
	{7,8},
	{3,5,6,9},
	{1,3,4,5,6,8,9},
	{3,5,6,9},
	{1,3,5,6,7,9},
	{1,4},
	{}];

POTENTIAL_ACT = [{3,4,8,9,10,12,14,17,20,22,23,26,28,29,32,33,36,47,51,52,53,55,56,59,60,61,66,67,68,71,73,74,75,76,77,78,81,83,85,88,90,91},
	{4,7,12,13,18,21,25,26,27,32,36,52,55,58,69,70,81,85},
	{2,4,6,8,9,11,12,13,17,19,21,22,23,24,25,27,29,30,31,32,33,34,35,37,39,40,41,43,45,46,47,48,49,50,52,54,59,60,61,62,63,64,66,67,69,71,72,79,82,83,84,87,88,89,90},
	{4,5,7,9,10,12,13,14,15,16,17,18,19,20,21,23,25,26,27,29,32,33,36,42,43,47,48,50,51,52,53,55,58,59,66,67,68,69,70,71,73,74,75,77,78,81,83,85,88,91},
	{2,4,6,7,8,9,11,12,13,17,18,19,20,21,22,23,24,25,26,27,29,30,31,32,33,34,35,36,37,39,40,41,43,45,46,47,48,49,50,52,54,55,57,58,59,60,61,62,63,64,66,67,69,70,71,72,79,81,82,83,84,85,87,88,89,90},
	{2,4,6,8,11,13,19,21,23,24,25,27,29,30,31,32,34,35,37,40,41,45,46,47,48,49,52,54,59,60,61,62,64,66,67,69,71,72,82,83,84,87,88,89,90},
	{3,4,5,6,7,8,12,13,15,16,18,19,20,21,22,25,26,27,28,32,36,38,42,43,44,48,50,51,52,53,54,55,58,60,61,62,64,65,68,69,70,73,74,75,78,80,81,82,85,86,90},
	{4,5,6,7,8,9,10,12,13,14,15,16,17,18,19,20,21,23,25,26,27,29,32,36,38,42,43,44,48,50,51,52,53,54,55,58,60,62,64,65,67,68,69,70,73,74,75,77,78,80,81,82,85,86,88},
	{2,4,6,8,9,11,12,13,17,19,20,21,22,23,24,25,27,29,30,31,32,33,34,35,37,39,40,41,43,45,46,47,48,49,50,52,54,57,59,60,61,62,63,64,66,67,69,71,72,79,82,83,84,87,88,89,90}];
